CMD:
./solvers/bin/cadical --plain --no-reduce -t 1600 ./data/cnfs//pdtpmstwo/pdtpmstwo.68.cnf

c --- [ banner ] -------------------------------------------------------------
c 
c CaDiCaL SAT Solver
c Copyright (c) 2016-2024
c A. Biere, M. Fleury, N. Froleyks, K. Fazekas, F. Pollitt, T. Faller
c JKU Linz, University of Freiburg, TU Wien
c 
c Version 2.1.3 5296d3d2a9bf48c154ab2acb5e44625776d821bf
c g++ (Gentoo 12.3.1_p20230526 p2) 12.3.1 20230526 -Wall -Wextra -O3 -DNDEBUG
c Sat Aug 9 07:26:21 PDT 2025 Linux cedar2.int.cedar.computecanada.ca 5.14.0-362.24.2.el9_3.x86_64 x86_64
c 
c --- [ limit ] --------------------------------------------------------------
c 
c setting time limit to 1600 seconds real time (due to '-t 1600')
c 
c --- [ parsing input ] ------------------------------------------------------
c 
c reading DIMACS file from './data/cnfs//pdtpmstwo/pdtpmstwo.68.cnf'
c opening file to read './data/cnfs//pdtpmstwo/pdtpmstwo.68.cnf'
c found 'p cnf 50888 151007' header
c parsed 151007 clauses in 0.02 seconds process time
c 
c --- [ options ] ------------------------------------------------------------
c 
c   --compact=false                (different from default 'true')
c   --decompose=false              (different from default 'true')
c   --deduplicate=false            (different from default 'true')
c   --elim=false                   (different from default 'true')
c   --probe=false                  (different from default 'true')
c   --reduce=false                 (different from default 'true')
c   --subsume=false                (different from default 'true')
c   --ternary=false                (different from default 'true')
c   --transred=false               (different from default 'true')
c   --vivify=false                 (different from default 'true')
c 
c --- [ solving ] ------------------------------------------------------------
c 
c time measured in process time since initialization
c 
c  seconds  reductions  redundant  irredundant
c         MB    restarts       trail       variables
c          level   conflicts       glue         remaining
c 
c *  0.02 25  0 0   0    0    0  0% 0 128582 29174 57%
c {  0.02 25  0 0   0    0    0  0% 0 128582 29174 57%
c i  0.03 26 14 0  39  377  311 44% 5 128582 29173 57%
c i  0.03 26 15 0  39  380  312 44% 5 128582 29171 57%
c i  0.03 26 15 0  39  381  312 45% 5 128582 29170 57%
c i  0.03 26 15 0  39  382  312 45% 5 128582 29169 57%
c i  0.03 26 27 0  39  423  348 50% 5 128582 29166 57%
c i  0.04 26 29 0  39  429  353 51% 5 128582 29165 57%
c i  0.04 26 29 0  39  430  353 51% 5 128582 29164 57%
c i  0.04 26 30 0  39  431  353 51% 5 128582 29163 57%
c i  0.04 26 30 0  39  432  353 51% 5 128582 29162 57%
c i  0.04 26 30 0  39  433  353 51% 5 128582 29161 57%
c i  0.04 26 37 0  39  460  377 54% 5 128582 29154 57%
c i  0.04 26 42 0  39  483  396 56% 5 128582 29150 57%
c i  0.04 26 44 0  39  491  401 57% 5 128582 29142 57%
c i  0.04 26 45 0  39  496  404 57% 5 128582 29138 57%
c i  0.04 26 50 0  40  518  424 59% 5 128582 29137 57%
c i  0.04 26 49 0  40  519  424 59% 5 128582 29134 57%
c i  0.04 26 49 0  42  525  429 58% 5 128582 29130 57%
c i  0.04 26 49 0  43  529  431 58% 5 128582 29129 57%
c 
c  seconds  reductions  redundant  irredundant
c         MB    restarts       trail       variables
c          level   conflicts       glue         remaining
c 
c i  0.04 26 49 0  43  530  431 58% 5 128582 29128 57%
c i  0.04 26 49 0  43  531  431 58% 5 128582 29127 57%
c i  0.04 26 49 0  43  532  431 58% 5 128582 29126 57%
c i  0.04 26 48 0  43  545  443 58% 5 128582 29125 57%
c i  0.04 26 48 0  43  553  450 58% 5 128582 29124 57%
c i  0.04 26 48 0  43  557  453 58% 5 128582 29123 57%
c i  0.04 26 48 0  43  559  454 58% 5 128582 29122 57%
c i  0.04 26 46 0  45  598  487 57% 5 128582 29121 57%
c i  0.04 26 46 0  45  602  490 57% 5 128582 29120 57%
c i  0.04 26 45 0  45  626  513 56% 5 128582 29119 57%
c i  0.04 26 45 0  45  629  515 56% 5 128582 29118 57%
c i  0.04 26 44 0  45  636  521 56% 5 128582 29117 57%
c i  0.05 26 70 0  51  829  703 64% 4 128582 29112 57%
c i  0.05 26 70 0  51  830  703 64% 4 128582 29109 57%
c i  0.05 26 70 0  51  832  704 64% 4 128582 29102 57%
c i  0.05 26 70 0  51  833  704 64% 4 128582 29097 57%
c i  0.05 26 70 0  51  834  704 64% 4 128582 29092 57%
c i  0.05 26 70 0  51  835  704 64% 4 128582 29091 57%
c i  0.05 26 70 0  51  836  704 64% 4 128582 29090 57%
c i  0.05 26 70 0  51  837  704 64% 4 128582 29086 57%
c 
c  seconds  reductions  redundant  irredundant
c         MB    restarts       trail       variables
c          level   conflicts       glue         remaining
c 
c i  0.05 26 70 0  51  839  703 64% 4 128582 29085 57%
c i  0.05 26 70 0  51  840  703 64% 4 128582 29082 57%
c i  0.05 26 70 0  51  841  703 64% 4 128582 29078 57%
c i  0.05 26 70 0  51  842  703 64% 4 128582 29077 57%
... skipped 61 lines ...
c i  0.10 26 64 0  52 3057 2777 61% 4 128582 28935 57%
c i  0.11 26 62 0  53 3234 2944 59% 4 128582 28929 57%
c i  0.11 26 62 0  56 3249 2956 59% 4 128582 28928 57%
c i  0.11 26 62 0  56 3250 2956 59% 4 128582 28921 57%
c i  0.11 26 62 0  56 3251 2956 59% 4 128582 28920 57%
c 
c  seconds  reductions  redundant  irredundant
c         MB    restarts       trail       variables
c          level   conflicts       glue         remaining
c 
c i  0.11 26 62 0  56 3258 2962 59% 4 128582 28912 57%
c i  0.11 26 62 0  56 3260 2962 59% 4 128582 28902 57%
c i  0.11 26 61 0  56 3264 2964 59% 4 128582 28896 57%
c i  0.11 26 61 0  56 3265 2964 59% 4 128582 28895 57%
c i  0.11 26 61 0  56 3266 2964 59% 4 128582 28884 57%
c i  0.11 26 61 0  56 3267 2964 59% 4 128582 28875 57%
c i  0.11 26 61 0  56 3278 2973 59% 4 128582 28865 57%
c i  0.11 26 61 0  56 3279 2973 59% 4 128582 28860 57%
c i  0.11 26 61 0  56 3281 2974 59% 4 128582 28853 57%
c i  0.11 26 61 0  56 3282 2974 59% 4 128582 28848 57%
c i  0.11 26 61 0  56 3284 2975 59% 4 128582 28847 57%
c i  0.11 26 61 0  56 3285 2975 59% 4 128582 28833 57%
c i  0.11 26 60 0  56 3289 2976 59% 4 128582 28826 57%
c i  0.11 26 60 0  56 3290 2976 59% 4 128582 28825 57%
c i  0.11 26 60 0  56 3291 2976 59% 4 128582 28800 57%
c i  0.11 26 60 0  56 3292 2976 59% 4 128582 28783 57%
c i  0.11 26 60 0  56 3293 2976 59% 4 128582 28782 57%
c i  0.11 26 60 0  56 3294 2976 59% 4 128582 28781 57%
c i  0.11 26 60 0  56 3295 2976 59% 4 128582 28772 57%
c i  0.11 26 59 0  56 3325 3001 58% 4 128582 28771 57%
c 
c  seconds  reductions  redundant  irredundant
c         MB    restarts       trail       variables
c          level   conflicts       glue         remaining
c 
c i  0.11 26 59 0  56 3334 3008 58% 4 128582 28770 57%
c i  0.11 26 59 0  56 3336 3009 58% 4 128582 28769 57%
c i  0.11 26 58 0  56 3373 3037 58% 4 128582 28767 57%
c i  0.11 26 58 0  56 3374 3037 58% 4 128582 28763 57%
c i  0.11 26 58 0  56 3376 3038 58% 4 128582 28758 57%
c i  0.11 26 58 0  56 3378 3035 58% 4 128582 28755 57%
c i  0.11 26 58 0  56 3379 3035 58% 4 128582 28733 56%
c i  0.11 26 58 0  56 3382 3037 58% 4 128582 28731 56%
c i  0.11 26 58 0  56 3384 3038 58% 4 128582 28730 56%
c i  0.11 26 57 0  56 3385 3038 58% 4 128582 28729 56%
c i  0.11 26 57 0  56 3388 3039 58% 4 128582 28727 56%
c }  0.11 26 57 0  56 3398 3045 58% 4 128582 28577 56%
c 0  0.11 26 57 0  56 3398 3045 58% 4 128582 28577 56%
c 
c --- [ result ] -------------------------------------------------------------
c 
s UNSATISFIABLE
c 
c --- [ run-time profiling ] -------------------------------------------------
c 
c process time taken by individual solving procedures
c (percentage relative to process time for solving)
c 
c         0.08   99.87% search
c         0.05   60.23% stable
c         0.03   39.15% unstable
c         0.02   28.44% parse
c         0.00    0.44% lucky
c         0.00    0.00% simplify
c   =================================
c         0.08   77.43% solve
c 
c last line shows process time for solving
c (percentage relative to total process time)
c 
c --- [ statistics ] ---------------------------------------------------------
c 
c chronological:              1843        54.24 %  of conflicts
c conflicts:                  3398     40688.28    per second
c decisions:                 10187    121981.01    per second
c fixed:                     22311        43.84 %  of all variables
c learned:                    3319        97.68 %  per conflict
c learned_lits:              44858       100.00 %  learned literals
c minimized:                     0         0.00 %  learned literals
c shrunken:                   3843         8.57 %  learned literals
c minishrunken:               5742        12.80 %  learned literals
c otfs:                         36         1.06 %  of conflict
c propagations:             872201        10.44 M  per second
c rephased:                      2      1699.00    interval
c restarts:                     56        60.68    interval
c stabilizing:                   1        59.06 %  of conflicts
c subsumed:                    145         0.11 %  of all clauses
c strengthened:                 34         0.03 %  of all clauses
c 
c seconds are measured in process time for solving
c 
c --- [ resources ] ----------------------------------------------------------
c 
c total process time since initialization:         0.11    seconds
c total real time since initialization:            0.12    seconds
c maximum resident set size of process:           35.06    MB
c 
c --- [ shutting down ] ------------------------------------------------------
c 
c exit 20
